

******************************************************************************
This program contains Ipopt, a library for large-scale nonlinear optimization.
 Ipopt is released as open source code under the Eclipse Public License (EPL).
         For more information visit https://github.com/coin-or/Ipopt
******************************************************************************

This is Ipopt version 3.14.11, running with linear solver MUMPS 5.5.1.

Number of nonzeros in equality constraint Jacobian...:       28
Number of nonzeros in inequality constraint Jacobian.:        0
Number of nonzeros in Lagrangian Hessian.............:       19

Total number of variables............................:       19
                     variables with only lower bounds:        0
                variables with lower and upper bounds:        0
                     variables with only upper bounds:        0
Total number of equality constraints.................:        8
Total number of inequality constraints...............:        0
        inequality constraints with only lower bounds:        0
   inequality constraints with lower and upper bounds:        0
        inequality constraints with only upper bounds:        0

iter    objective    inf_pr   inf_du lg(mu)  ||d||  lg(rg) alpha_du alpha_pr  ls
   0  7.3625900e+03 4.00e+00 6.72e+01  -1.0 0.00e+00    -  0.00e+00 0.00e+00   0
   1  1.1149109e+01 2.66e-15 1.65e-14  -1.0 3.44e+01    -  1.00e+00 1.00e+00f  1

Number of Iterations....: 1

                                   (scaled)                 (unscaled)
Objective...............:   3.7163697138281666e+00    1.1149109141484500e+01
Dual infeasibility......:   1.6542323066914832e-14    4.9626969200744497e-14
Constraint violation....:   2.6645352591003757e-15    2.6645352591003757e-15
Variable bound violation:   0.0000000000000000e+00    0.0000000000000000e+00
Complementarity.........:   0.0000000000000000e+00    0.0000000000000000e+00
Overall NLP error.......:   1.6542323066914832e-14    4.9626969200744497e-14


Number of objective function evaluations             = 2
Number of objective gradient evaluations             = 2
Number of equality constraint evaluations            = 2
Number of inequality constraint evaluations          = 0
Number of equality constraint Jacobian evaluations   = 2
Number of inequality constraint Jacobian evaluations = 0
Number of Lagrangian Hessian evaluations             = 1
Total seconds in IPOPT                               = 0.002

EXIT: Optimal Solution Found.
 
Ipopt 3.14.11: Optimal Solution Found
